<instance format="XCSP3" type="CSP">
  <variables>
    <var id="x0"> 7 8 10 14 </var>
    <var id="x1"> 3 4 8 10 </var>
    <var id="x2"> 0 3 4 8 10 14 </var>
    <var id="x3"> 7 10 14 </var>
    <var id="x4"> 0 3 14 </var>
    <var id="x5"> 0 4 10 </var>
    <var id="x6"> 4 8 14 </var>
    <var id="x7"> 4 5 11 14 </var>
    <var id="x8"> 4 10 13 14 </var>
    <var id="x9"> 10 13 14 </var>
    <var id="x10"> 9 14 </var>
    <var id="x11"> 4 5 11 </var>
    <var id="x12"> 4 5 10 </var>
    <var id="x13"> 4 9 10 </var>
    <var id="x14"> 0 3 12 </var>
    <var id="x15"> 2 12 14 </var>
    <var id="x16"> 0 8 12 </var>
    <var id="x17"> 2 3 </var>
    <var id="x18"> 6 8 12 14 </var>
    <var id="x19"> 0 2 6 </var>
    <var id="x20"> 0 12 14 </var>
    <var id="x21"> 1 3 10 12 </var>
    <var id="x22"> 2 3 10 12 13 </var>
    <var id="x23"> 0 2 </var>
    <var id="x24"> 10 12 </var>
    <var id="x25"> 0..2 10 </var>
    <var id="x26"> 0 1 10 12 </var>
    <var id="x27"> 2 </var>
    <var id="x28"> 6 8 10 </var>
    <var id="x29"> 4 8 10 12 </var>
    <var id="x30"> 2 4 6 </var>
    <var id="x31"> 2 4 10 </var>
    <var id="x32"> 4 6 8 10 12 </var>
    <var id="x33"> 4 9 10 12 </var>
    <var id="x34"> 2 4 6 8 9 </var>
    <var id="x35"> 1 4 5 8 </var>
    <var id="x36"> 5 8 13 </var>
    <var id="x37"> 1 4 8 12 </var>
    <var id="x38"> 1 4 8 12 13 </var>
    <var id="x39"> 2 8 12 13 </var>
    <var id="x40"> 4 5 8 12 </var>
    <var id="x41"> 2 4 8 </var>
    <var id="x42"> 1 4 5 11 </var>
    <var id="x43"> 4 13 </var>
    <var id="x44"> 1 5 9 13 </var>
    <var id="x45"> 1 2 9 </var>
    <var id="x46"> 2 4 5 11 </var>
    <var id="x47"> 1 2 4 5 </var>
    <var id="x48"> 2 4 9 11 </var>
    <var id="x49"> 0 1 4 </var>
    <var id="x50"> 6 13 </var>
    <var id="x51"> 1 3 4 </var>
    <var id="x52"> 0 1 3 13 </var>
    <var id="x53"> 0..3 6 </var>
    <var id="x54"> 0..2 4 6 </var>
    <var id="x55"> 0 1 4 </var>
    <var id="x56"> 1 3 8 10 12 </var>
    <var id="x57"> 3 8 10 </var>
    <var id="x58"> 1 8 12 </var>
    <var id="x59"> 1 3 </var>
    <var id="x60"> 3 8 10 12 </var>
    <var id="x61"> 5 7 </var>
    <var id="x62"> 1 5 10 12 </var>
    <var id="x63"> 0 4 8 11 </var>
    <var id="x64"> 6 8 10 13 </var>
    <var id="x65"> 0 4 8 10 13 </var>
    <var id="x66"> 0 13 </var>
    <var id="x67"> 2 10 13 </var>
    <var id="x68"> 0 4 8 11 13 </var>
    <var id="x69"> 2 8 10 11 13 </var>
    <var id="x70"> 2 4 10 </var>
    <var id="x71"> 0 1 4 5 11 14 </var>
    <var id="x72"> 0 4 14 </var>
    <var id="x73"> 1 14 </var>
    <var id="x74"> 11 </var>
    <var id="x75"> 0 4 5 11 </var>
    <var id="x76"> 0 1 4 9 </var>
    <var id="x77"> 0 1 4 5 9 14 </var>
    <var id="x78"> 5 7 10 14 </var>
    <var id="x79"> 0 1 5 12 </var>
    <var id="x80"> 1 7 10 12 14 </var>
    <var id="x81"> 0 1 12 </var>
    <var id="x82"> 0 1 14 </var>
    <var id="x83"> 5 10 12 14 </var>
    <var id="x84"> 14 </var>
    <var id="x85"> 4 8 14 </var>
    <var id="x86"> 1 5 9 </var>
    <var id="x87"> 1 4 8 11 </var>
    <var id="x88"> 1 4 5 </var>
    <var id="x89"> 4 5 8 14 </var>
    <var id="x90"> 1 4 9 </var>
    <var id="x91"> 4 8 9 11 14 </var>
    <var id="x92"> 8 11 14 </var>
    <var id="x93"> 3 8 10..12 </var>
    <var id="x94"> 10 12 14 </var>
    <var id="x95"> 3 6 14 </var>
    <var as="x93" id="x96"/>
    <var id="x97"> 6 11 </var>
    <var id="x98"> 10 12 14 </var>
    <var id="x99"> 6 7 10 14 </var>
    <var id="x100"> 0 1 </var>
    <var id="x101"> 0 1 4 </var>
    <var id="x102"> 10 </var>
    <var id="x103"> 1 4 7 10 </var>
    <var id="x104"> 4 6 10 14 </var>
    <var id="x105"> 0 1 4 10 14 </var>
  </variables>
  <constraints>
    <group>
      <allDifferent> %... </allDifferent>
      <args> x0 x1 x2 x3 x4 x5 x6 </args>
      <args> x7 x8 x9 x10 x11 x12 x13 </args>
      <args> x14 x15 x16 x17 x18 x19 x20 </args>
      <args> x21 x22 x23 x24 x25 x26 x27 </args>
      <args> x28 x29 x30 x31 x32 x33 x34 </args>
      <args> x35 x36 x37 x38 x39 x40 x41 </args>
      <args> x42 x43 x44 x45 x46 x47 x48 </args>
      <args> x49 x50 x51 x52 x53 x54 x55 </args>
      <args> x56 x57 x58 x59 x60 x61 x62 </args>
      <args> x63 x64 x65 x66 x67 x68 x69 x70 </args>
      <args> x71 x72 x73 x74 x75 x76 x77 </args>
      <args> x78 x79 x80 x81 x82 x83 x84 </args>
      <args> x85 x86 x87 x88 x89 x90 x91 </args>
      <args> x92 x93 x94 x95 x96 x97 x98 </args>
      <args> x99 x100 x101 x102 x103 x104 x105 </args>
      <args> x7 x35 x42 x49 x63 x71 x92 </args>
      <args> x0 x28 x36 x50 x64 x78 x99 </args>
      <args> x1 x21 x29 x37 x51 x56 x93 </args>
      <args> x2 x8 x43 x57 x65 x72 x85 </args>
      <args> x14 x44 x52 x66 x79 x86 x100 </args>
      <args> x3 x9 x15 x67 x73 x80 x94 </args>
      <args> x16 x38 x58 x68 x81 x87 x101 </args>
      <args> x4 x10 x45 x53 x59 x82 x95 </args>
      <args> x22 x39 x60 x69 x74 x96 x102 </args>
      <args> x11 x23 x30 x46 x61 x75 x97 </args>
      <args> x12 x17 x31 x47 x70 x88 x103 </args>
      <args> x18 x24 x32 x40 x83 x89 x104 </args>
      <args> x5 x13 x19 x25 x54 x76 x90 </args>
      <args> x20 x26 x33 x55 x62 x77 x98 x105 </args>
      <args> x6 x27 x34 x41 x48 x84 x91 </args>
    </group>
  </constraints>
</instance>

